120
150
33
75
72
94
20
33
49
94
32
83
38
87
54
23
22
100
83
76
100
29
33
91
50
24
38
43
50
88
67
29
26
94
52
83
90
81
36
27
87
94
33
91
77
98
78
24
74
28
56
68
26
20
77
84
65
81
68
36
90
60
73
79
81
44
50
73
94
33
24
100
100
27
26
56
24
100
76
24
68
61
65
75
83
77
50
88
47
38
90
88
24
81
60
95
24
98
52
55
95
100
75
50
24
100
47
53
24
67
43
73
26
75
75
91
38
29
60
90
20
30
